Optimal - objective value 4.00000000
      8 x_0_8                       1         0.0471698113207547
     21 x_1_6                       1         -0.0188679245283018
     30 x_2_0                       1         0.39622641509434
     53 x_3_8                       1                       0
     71 x_4_11                      1                       0
     81 x_5_6                       1         0.0849056603773584
     96 x_6_6                       1         -0.235849056603774
    116 x_7_11                      1         -0.254716981132075
    126 x_8_6                       1         0.10377358490566
    141 x_9_6                       1                       0
    161 x_10_11                     1                       0
    165 x_11_0                      1         0.19811320754717
    188 x_12_8                      1         0.0471698113207547
    206 x_13_11                     1         -0.10377358490566
    218 x_14_8                      1         0.443396226415094
    225 y_0                         1                       0
    231 y_6                         1         0.169811320754717
    233 y_8                         1         -0.283018867924528
    236 y_11                        1         0.462264150943396
